bound = 210;
n = 20;
p = 10;
num_edges = 380;
E = array2d(1..num_edges, 1..2, [
1,2
,1,3
,1,4
,1,5
,1,6
,1,7
,1,8
,1,9
,1,10
,1,11
,1,12
,1,13
,1,14
,1,15
,1,16
,1,17
,1,18
,1,19
,1,20
,2,1
,2,3
,2,4
,2,5
,2,6
,2,7
,2,8
,2,9
,2,10
,2,11
,2,12
,2,13
,2,14
,2,15
,2,16
,2,17
,2,18
,2,19
,2,20
,3,1
,3,2
,3,4
,3,5
,3,6
,3,7
,3,8
,3,9
,3,10
,3,11
,3,12
,3,13
,3,14
,3,15
,3,16
,3,17
,3,18
,3,19
,3,20
,4,1
,4,2
,4,3
,4,5
,4,6
,4,7
,4,8
,4,9
,4,10
,4,11
,4,12
,4,13
,4,14
,4,15
,4,16
,4,17
,4,18
,4,19
,4,20
,5,1
,5,2
,5,3
,5,4
,5,6
,5,7
,5,8
,5,9
,5,10
,5,11
,5,12
,5,13
,5,14
,5,15
,5,16
,5,17
,5,18
,5,19
,5,20
,6,1
,6,2
,6,3
,6,4
,6,5
,6,7
,6,8
,6,9
,6,10
,6,11
,6,12
,6,13
,6,14
,6,15
,6,16
,6,17
,6,18
,6,19
,6,20
,7,1
,7,2
,7,3
,7,4
,7,5
,7,6
,7,8
,7,9
,7,10
,7,11
,7,12
,7,13
,7,14
,7,15
,7,16
,7,17
,7,18
,7,19
,7,20
,8,1
,8,2
,8,3
,8,4
,8,5
,8,6
,8,7
,8,9
,8,10
,8,11
,8,12
,8,13
,8,14
,8,15
,8,16
,8,17
,8,18
,8,19
,8,20
,9,1
,9,2
,9,3
,9,4
,9,5
,9,6
,9,7
,9,8
,9,10
,9,11
,9,12
,9,13
,9,14
,9,15
,9,16
,9,17
,9,18
,9,19
,9,20
,10,1
,10,2
,10,3
,10,4
,10,5
,10,6
,10,7
,10,8
,10,9
,10,11
,10,12
,10,13
,10,14
,10,15
,10,16
,10,17
,10,18
,10,19
,10,20
,11,1
,11,2
,11,3
,11,4
,11,5
,11,6
,11,7
,11,8
,11,9
,11,10
,11,12
,11,13
,11,14
,11,15
,11,16
,11,17
,11,18
,11,19
,11,20
,12,1
,12,2
,12,3
,12,4
,12,5
,12,6
,12,7
,12,8
,12,9
,12,10
,12,11
,12,13
,12,14
,12,15
,12,16
,12,17
,12,18
,12,19
,12,20
,13,1
,13,2
,13,3
,13,4
,13,5
,13,6
,13,7
,13,8
,13,9
,13,10
,13,11
,13,12
,13,14
,13,15
,13,16
,13,17
,13,18
,13,19
,13,20
,14,1
,14,2
,14,3
,14,4
,14,5
,14,6
,14,7
,14,8
,14,9
,14,10
,14,11
,14,12
,14,13
,14,15
,14,16
,14,17
,14,18
,14,19
,14,20
,15,1
,15,2
,15,3
,15,4
,15,5
,15,6
,15,7
,15,8
,15,9
,15,10
,15,11
,15,12
,15,13
,15,14
,15,16
,15,17
,15,18
,15,19
,15,20
,16,1
,16,2
,16,3
,16,4
,16,5
,16,6
,16,7
,16,8
,16,9
,16,10
,16,11
,16,12
,16,13
,16,14
,16,15
,16,17
,16,18
,16,19
,16,20
,17,1
,17,2
,17,3
,17,4
,17,5
,17,6
,17,7
,17,8
,17,9
,17,10
,17,11
,17,12
,17,13
,17,14
,17,15
,17,16
,17,18
,17,19
,17,20
,18,1
,18,2
,18,3
,18,4
,18,5
,18,6
,18,7
,18,8
,18,9
,18,10
,18,11
,18,12
,18,13
,18,14
,18,15
,18,16
,18,17
,18,19
,18,20
,19,1
,19,2
,19,3
,19,4
,19,5
,19,6
,19,7
,19,8
,19,9
,19,10
,19,11
,19,12
,19,13
,19,14
,19,15
,19,16
,19,17
,19,18
,19,20
,20,1
,20,2
,20,3
,20,4
,20,5
,20,6
,20,7
,20,8
,20,9
,20,10
,20,11
,20,12
,20,13
,20,14
,20,15
,20,16
,20,17
,20,18
,20,19
]);
c=[
37,
12,
57,
17,
57,
8,
8,
22,
41,
6,
35,
15,
63,
15,
63,
15,
15,
15,
8,
37,
33,
58,
35,
59,
38,
38,
53,
53,
31,
5,
49,
62,
49,
62,
49,
49,
49,
39,
12,
33,
67,
27,
67,
20,
20,
34,
52,
10,
33,
27,
72,
27,
72,
27,
27,
27,
20,
57,
58,
67,
40,
0,
49,
49,
46,
19,
57,
53,
52,
6,
52,
6,
52,
52,
52,
50,
17,
35,
27,
40,
40,
10,
10,
18,
25,
17,
31,
17,
46,
17,
46,
17,
17,
17,
10,
57,
59,
67,
0,
40,
50,
50,
46,
19,
57,
53,
52,
6,
52,
6,
52,
52,
52,
50,
8,
38,
20,
49,
10,
50,
0,
16,
33,
12,
35,
10,
55,
10,
55,
10,
10,
10,
1,
8,
38,
20,
49,
10,
50,
0,
16,
33,
12,
35,
10,
55,
10,
55,
10,
10,
10,
1,
22,
53,
34,
46,
18,
46,
16,
16,
28,
27,
49,
8,
52,
8,
52,
8,
8,
8,
15,
41,
53,
52,
19,
25,
19,
33,
33,
28,
42,
48,
33,
25,
33,
25,
33,
33,
33,
33,
6,
31,
10,
57,
17,
57,
12,
12,
27,
42,
29,
21,
62,
21,
62,
21,
21,
21,
12,
35,
5,
33,
53,
31,
53,
35,
35,
49,
48,
29,
46,
56,
46,
56,
46,
46,
46,
36,
15,
49,
27,
52,
17,
52,
10,
10,
8,
33,
21,
46,
58,
0,
58,
0,
0,
0,
10,
63,
62,
72,
6,
46,
6,
55,
55,
52,
25,
62,
56,
58,
58,
0,
58,
58,
58,
56,
15,
49,
27,
52,
17,
52,
10,
10,
8,
33,
21,
46,
0,
58,
58,
0,
0,
0,
10,
63,
62,
72,
6,
46,
6,
55,
55,
52,
25,
62,
56,
58,
0,
58,
58,
58,
58,
56,
15,
49,
27,
52,
17,
52,
10,
10,
8,
33,
21,
46,
0,
58,
0,
58,
0,
0,
10,
15,
49,
27,
52,
17,
52,
10,
10,
8,
33,
21,
46,
0,
58,
0,
58,
0,
0,
10,
15,
49,
27,
52,
17,
52,
10,
10,
8,
33,
21,
46,
0,
58,
0,
58,
0,
0,
10,
8,
39,
20,
50,
10,
50,
1,
1,
15,
33,
12,
36,
10,
56,
10,
56,
10,
10,
10];
